(set-logic QF_LIA)
(declare-fun x0 () Int)
(declare-fun x1 () Int)
(declare-fun x2 () Int)
(declare-fun x3 () Int)
(declare-fun x4 () Int)
(declare-fun x5 () Int)
(declare-fun x6 () Int)
(declare-fun x7 () Int)
(declare-fun x8 () Int)
(declare-fun x9 () Int)
(declare-fun A0 () Bool)
(declare-fun A1 () Bool)
(declare-fun A2 () Bool)
(declare-fun A3 () Bool)
(declare-fun A4 () Bool)
(declare-fun A5 () Bool)
(declare-fun A6 () Bool)
(declare-fun A7 () Bool)
(declare-fun A8 () Bool)
(declare-fun A9 () Bool)
(assert (let ((.def_0 (* (- 1) x5))) (let ((.def_1 (< .def_0 (- 1)))) (let ((.def_2 (not .def_1))) (let ((.def_3 (* (- 1) x4))) (let ((.def_4 (< .def_3 (- 1)))) (let ((.def_5 (not .def_4))) (let ((.def_6 (or .def_5 .def_2))) (let ((.def_7 (not .def_6))) (let ((.def_8 (* (- 1) x1))) (let ((.def_9 (< .def_8 1))) (let ((.def_10 (and .def_9 A1))) (let ((.def_11 (not .def_10))) (let ((.def_12 (and .def_11 .def_7))) (let ((.def_13 (not A1))) (let ((.def_14 (or .def_13 A8))) (let ((.def_15 (not .def_14))) (let ((.def_16 (* (- 1) x0))) (let ((.def_17 (< .def_16 (- 1)))) (let ((.def_18 (or .def_17 A2))) (let ((.def_19 (and .def_18 .def_15))) (let ((.def_20 (not .def_19))) (let ((.def_21 (and .def_20 .def_12))) (let ((.def_22 (not .def_21))) (let ((.def_23 (and A3 A0))) (let ((.def_24 (not .def_23))) (let ((.def_25 (* 1 x4))) (let ((.def_26 (< .def_25 (- 1)))) (let ((.def_27 (* 1 x9))) (let ((.def_28 (* (- 1) x8))) (let ((.def_29 (+ .def_28 .def_27))) (let ((.def_30 (< .def_29 1))) (let ((.def_31 (and .def_30 .def_26))) (let ((.def_32 (or .def_31 .def_24))) (let ((.def_33 (not A9))) (let ((.def_34 (< .def_28 (- 1)))) (let ((.def_35 (not .def_34))) (let ((.def_36 (= .def_35 .def_33))) (let ((.def_37 (< .def_8 (- 1)))) (let ((.def_38 (not A4))) (let ((.def_39 (and .def_38 .def_37))) (let ((.def_40 (and .def_39 .def_36))) (let ((.def_41 (not .def_40))) (let ((.def_42 (= .def_41 .def_32))) (let ((.def_43 (and .def_42 .def_22))) (let ((.def_44 (not .def_43))) (let ((.def_45 (not A7))) (let ((.def_46 (< .def_27 (- 1)))) (let ((.def_47 (not .def_46))) (let ((.def_48 (or .def_47 .def_45))) (let ((.def_49 (not .def_48))) (let ((.def_50 (* 1 x0))) (let ((.def_51 (* 1 x1))) (let ((.def_52 (+ .def_51 .def_50))) (let ((.def_53 (< .def_52 (- 1)))) (let ((.def_54 (or .def_53 .def_33))) (let ((.def_55 (or .def_54 .def_49))) (let ((.def_56 (* 1 x8))) (let ((.def_57 (* 1 x3))) (let ((.def_58 (+ .def_57 .def_56))) (let ((.def_59 (< .def_58 1))) (let ((.def_60 (not A3))) (let ((.def_61 (and .def_60 .def_59))) (let ((.def_62 (not A6))) (let ((.def_63 (or .def_62 .def_45))) (let ((.def_64 (not .def_63))) (let ((.def_65 (and .def_64 .def_61))) (let ((.def_66 (or .def_65 .def_55))) (let ((.def_67 (not .def_66))) (let ((.def_68 (+ .def_50 .def_28))) (let ((.def_69 (< .def_68 (- 1)))) (let ((.def_70 (or .def_60 .def_69))) (let ((.def_71 (not A5))) (let ((.def_72 (< .def_56 (- 1)))) (let ((.def_73 (not .def_72))) (let ((.def_74 (and .def_73 .def_71))) (let ((.def_75 (and .def_74 .def_70))) (let ((.def_76 (and .def_60 A3))) (let ((.def_77 (not .def_76))) (let ((.def_78 (and .def_45 A9))) (let ((.def_79 (not .def_78))) (let ((.def_80 (and .def_79 .def_77))) (let ((.def_81 (not .def_80))) (let ((.def_82 (and .def_81 .def_75))) (let ((.def_83 (not .def_82))) (let ((.def_84 (or .def_83 .def_67))) (let ((.def_85 (and .def_84 .def_44))) (let ((.def_86 (not .def_85))) (let ((.def_87 (* (- 1) x9))) (let ((.def_88 (+ .def_87 .def_0))) (let ((.def_89 (< .def_88 1))) (let ((.def_90 (not .def_89))) (let ((.def_91 (or .def_45 .def_90))) (let ((.def_92 (not .def_91))) (let ((.def_93 (* 1 x5))) (let ((.def_94 (+ .def_93 .def_8))) (let ((.def_95 (< .def_94 (- 1)))) (let ((.def_96 (and .def_71 .def_95))) (let ((.def_97 (not .def_96))) (let ((.def_98 (or .def_97 .def_92))) (let ((.def_99 (not .def_98))) (let ((.def_100 (and .def_4 A1))) (let ((.def_101 (+ .def_57 .def_87))) (let ((.def_102 (< .def_101 1))) (let ((.def_103 (not .def_102))) (let ((.def_104 (and .def_13 .def_103))) (let ((.def_105 (not .def_104))) (let ((.def_106 (= .def_105 .def_100))) (let ((.def_107 (and .def_106 .def_99))) (let ((.def_108 (< .def_56 1))) (let ((.def_109 (not .def_108))) (let ((.def_110 (< .def_93 (- 1)))) (let ((.def_111 (not .def_110))) (let ((.def_112 (and .def_111 .def_109))) (let ((.def_113 (and .def_35 A8))) (let ((.def_114 (not .def_113))) (let ((.def_115 (= .def_114 .def_112))) (let ((.def_116 (* (- 1) x3))) (let ((.def_117 (< .def_116 (- 1)))) (let ((.def_118 (and .def_117 .def_38))) (let ((.def_119 (not .def_118))) (let ((.def_120 (< .def_3 1))) (let ((.def_121 (not .def_120))) (let ((.def_122 (or .def_60 .def_121))) (let ((.def_123 (and .def_122 .def_119))) (let ((.def_124 (or .def_123 .def_115))) (let ((.def_125 (or .def_124 .def_107))) (let ((.def_126 (not .def_125))) (let ((.def_127 (and A5 .def_111))) (let ((.def_128 (* (- 1) x6))) (let ((.def_129 (+ .def_27 .def_128))) (let ((.def_130 (< .def_129 1))) (let ((.def_131 (+ .def_50 .def_8))) (let ((.def_132 (< .def_131 (- 1)))) (let ((.def_133 (or .def_132 .def_130))) (let ((.def_134 (and .def_133 .def_127))) (let ((.def_135 (not .def_134))) (let ((.def_136 (< .def_51 (- 1)))) (let ((.def_137 (+ .def_93 .def_56))) (let ((.def_138 (< .def_137 (- 1)))) (let ((.def_139 (not .def_138))) (let ((.def_140 (and .def_139 .def_136))) (let ((.def_141 (not .def_140))) (let ((.def_142 (+ .def_0 .def_87))) (let ((.def_143 (< .def_142 1))) (let ((.def_144 (and .def_38 .def_143))) (let ((.def_145 (not .def_144))) (let ((.def_146 (or .def_145 .def_141))) (let ((.def_147 (and .def_146 .def_135))) (let ((.def_148 (= .def_33 .def_38))) (let ((.def_149 (not .def_148))) (let ((.def_150 (* (- 1) x2))) (let ((.def_151 (+ .def_27 .def_150))) (let ((.def_152 (< .def_151 (- 1)))) (let ((.def_153 (not A0))) (let ((.def_154 (= .def_153 .def_152))) (let ((.def_155 (not .def_154))) (let ((.def_156 (and .def_155 .def_149))) (let ((.def_157 (not .def_156))) (let ((.def_158 (not A2))) (let ((.def_159 (and .def_158 A7))) (let ((.def_160 (* 1 x6))) (let ((.def_161 (< .def_160 (- 1)))) (let ((.def_162 (< .def_128 (- 1)))) (let ((.def_163 (not .def_162))) (let ((.def_164 (or .def_163 .def_161))) (let ((.def_165 (not .def_164))) (let ((.def_166 (and .def_165 .def_159))) (let ((.def_167 (= .def_166 .def_157))) (let ((.def_168 (not .def_167))) (let ((.def_169 (and .def_168 .def_147))) (let ((.def_170 (or .def_169 .def_126))) (let ((.def_171 (not .def_170))) (let ((.def_172 (and .def_171 .def_86))) (let ((.def_173 (<= x9 1))) (let ((.def_174 (<= 0 x9))) (let ((.def_175 (<= x8 1))) (let ((.def_176 (<= 0 x8))) (let ((.def_177 (<= x7 1))) (let ((.def_178 (<= 0 x7))) (let ((.def_179 (<= x6 1))) (let ((.def_180 (<= 0 x6))) (let ((.def_181 (<= x5 1))) (let ((.def_182 (<= 0 x5))) (let ((.def_183 (<= x4 1))) (let ((.def_184 (<= 0 x4))) (let ((.def_185 (<= x3 1))) (let ((.def_186 (<= 0 x3))) (let ((.def_187 (<= x2 1))) (let ((.def_188 (<= 0 x2))) (let ((.def_189 (<= x1 1))) (let ((.def_190 (<= 0 x1))) (let ((.def_191 (<= x0 1))) (let ((.def_192 (<= 0 x0))) (let ((.def_193 (and .def_192 .def_191 .def_190 .def_189 .def_188 .def_187 .def_186 .def_185 .def_184 .def_183 .def_182 .def_181 .def_180 .def_179 .def_178 .def_177 .def_176 .def_175 .def_174 .def_173 .def_172))) .def_193)))))))))))))))))))))))))))))))))))))))))))))))))))))))))))))))))))))))))))))))))))))))))))))))))))))))))))))))))))))))))))))))))))))))))))))))))))))))))))))))))))))))))))))))))))))))))))))))))))
(check-sat)
